p cnf 964 3072
1 -2 0
2 -1 0
3 -4 0
4 -3 0
5 -6 0
6 -5 0
7 -8 0
8 -7 0
9 -10 0
10 -9 0
11 -12 0
12 -11 0
13 -14 0
14 -13 0
15 -16 0
16 -15 0
17 -18 0
18 -17 0
19 -20 0
20 -19 0
21 -22 0
22 -21 0
23 -24 0
24 -23 0
25 -26 0
26 -25 0
27 -28 0
28 -27 0
29 -30 0
30 -29 0
31 -32 0
32 -31 0
33 -34 0
34 -33 0
35 -36 0
36 -35 0
37 -38 0
38 -37 0
39 -40 0
40 -39 0
41 -42 0
42 -41 0
43 -44 0
44 -43 0
45 -46 0
46 -45 0
47 -48 0
48 -47 0
49 -50 0
50 -49 0
51 52 0
53 52 0
54 52 0
55 52 0
56 52 0
57 52 0
58 52 0
59 52 0
60 52 0
-61 0
-62 -63 52 0
62 -63 -52 0
63 -52 -62 0
62 52 63 0
-63 0
53 64 0
54 64 0
55 64 0
56 64 0
57 64 0
58 64 0
59 64 0
60 64 0
-65 0
64 -66 -67 0
66 -64 -67 0
67 -64 -66 0
66 64 67 0
-67 0
54 68 0
55 68 0
56 68 0
57 68 0
58 68 0
59 68 0
60 68 0
-69 0
68 -70 -71 0
70 -68 -71 0
71 -68 -70 0
70 68 71 0
-71 0
55 72 0
56 72 0
57 72 0
58 72 0
59 72 0
60 72 0
-73 0
72 -74 -75 0
74 -72 -75 0
75 -72 -74 0
74 72 75 0
-75 0
56 76 0
57 76 0
58 76 0
59 76 0
60 76 0
-77 0
76 -78 -79 0
78 -76 -79 0
79 -76 -78 0
78 76 79 0
-79 0
76 -80 -81 0
80 -76 -81 0
81 -76 -80 0
80 76 81 0
-81 0
76 -82 -83 0
82 -76 -83 0
83 -76 -82 0
82 76 83 0
-83 0
76 -84 -85 0
84 -76 -85 0
85 -76 -84 0
84 76 85 0
-85 0
76 -86 -87 0
86 -76 -87 0
87 -76 -86 0
86 76 87 0
-87 0
88 89 0
90 89 0
91 89 0
92 89 0
93 89 0
94 89 0
95 89 0
96 89 0
97 89 0
98 89 0
-99 0
-100 89 -101 0
100 -89 -101 0
101 -89 -100 0
100 89 101 0
-101 0
90 102 0
91 102 0
92 102 0
93 102 0
94 102 0
95 102 0
96 102 0
97 102 0
98 102 0
-103 0
102 -104 -105 0
104 -102 -105 0
105 -102 -104 0
104 102 105 0
-105 0
91 106 0
92 106 0
93 106 0
94 106 0
95 106 0
96 106 0
97 106 0
98 106 0
-107 0
106 -108 -109 0
108 -106 -109 0
109 -106 -108 0
108 106 109 0
-109 0
92 110 0
93 110 0
94 110 0
95 110 0
96 110 0
97 110 0
98 110 0
-111 0
110 -112 -113 0
112 -110 -113 0
113 -110 -112 0
112 110 113 0
-113 0
93 114 0
94 114 0
95 114 0
96 114 0
97 114 0
98 114 0
-115 0
114 -116 -117 0
116 -114 -117 0
117 -114 -116 0
116 114 117 0
-117 0
94 118 0
95 118 0
96 118 0
97 118 0
98 118 0
-119 0
118 -120 -121 0
120 -118 -121 0
121 -118 -120 0
120 118 121 0
-121 0
95 122 0
96 122 0
97 122 0
98 122 0
-123 0
122 -124 -125 0
124 -122 -125 0
125 -122 -124 0
124 122 125 0
-125 0
122 -126 -127 0
126 -122 -127 0
127 -122 -126 0
126 122 127 0
-127 0
122 -128 -129 0
128 -122 -129 0
129 -122 -128 0
128 122 129 0
-129 0
122 -130 -131 0
130 -122 -131 0
131 -122 -130 0
130 122 131 0
-131 0
132 133 0
134 133 0
135 133 0
136 133 0
137 133 0
138 133 0
139 133 0
140 133 0
141 133 0
142 133 0
143 133 0
-144 0
-145 133 -146 0
145 -133 -146 0
146 -133 -145 0
145 133 146 0
-146 0
134 147 0
135 147 0
136 147 0
137 147 0
138 147 0
139 147 0
140 147 0
141 147 0
142 147 0
143 147 0
-148 0
147 -149 -150 0
149 -147 -150 0
150 -147 -149 0
149 147 150 0
-150 0
135 151 0
136 151 0
137 151 0
138 151 0
139 151 0
140 151 0
141 151 0
142 151 0
143 151 0
-152 0
151 -153 -154 0
153 -151 -154 0
154 -151 -153 0
153 151 154 0
-154 0
136 155 0
137 155 0
138 155 0
139 155 0
140 155 0
141 155 0
142 155 0
143 155 0
-156 0
155 -157 -158 0
157 -155 -158 0
158 -155 -157 0
157 155 158 0
-158 0
137 159 0
138 159 0
139 159 0
140 159 0
141 159 0
142 159 0
143 159 0
-160 0
159 -161 -162 0
161 -159 -162 0
162 -159 -161 0
161 159 162 0
-162 0
138 163 0
139 163 0
140 163 0
141 163 0
142 163 0
143 163 0
-164 0
163 -165 -166 0
165 -163 -166 0
166 -163 -165 0
165 163 166 0
-166 0
163 -167 -168 0
167 -163 -168 0
168 -163 -167 0
167 163 168 0
-168 0
163 -169 -170 0
169 -163 -170 0
170 -163 -169 0
169 163 170 0
-170 0
163 -171 -172 0
171 -163 -172 0
172 -163 -171 0
171 163 172 0
-172 0
163 -173 -174 0
173 -163 -174 0
174 -163 -173 0
173 163 174 0
-174 0
163 -175 -176 0
175 -163 -176 0
176 -163 -175 0
175 163 176 0
-176 0
177 178 0
179 178 0
180 178 0
181 178 0
182 178 0
183 178 0
184 178 0
185 178 0
186 178 0
-187 0
-188 178 -189 0
188 -178 -189 0
189 -178 -188 0
188 178 189 0
-189 0
179 190 0
180 190 0
181 190 0
182 190 0
183 190 0
184 190 0
185 190 0
186 190 0
-191 0
190 -192 -193 0
192 -190 -193 0
193 -190 -192 0
192 190 193 0
-193 0
180 194 0
181 194 0
182 194 0
183 194 0
184 194 0
185 194 0
186 194 0
-195 0
194 -196 -197 0
196 -194 -197 0
197 -194 -196 0
196 194 197 0
-197 0
181 198 0
182 198 0
183 198 0
184 198 0
185 198 0
186 198 0
-199 0
198 -200 -201 0
200 -198 -201 0
201 -198 -200 0
200 198 201 0
-201 0
182 202 0
183 202 0
184 202 0
185 202 0
186 202 0
-203 0
202 -204 -205 0
204 -202 -205 0
205 -202 -204 0
204 202 205 0
-205 0
202 -206 -207 0
206 -202 -207 0
207 -202 -206 0
206 202 207 0
-207 0
202 -208 -209 0
208 -202 -209 0
209 -202 -208 0
208 202 209 0
-209 0
202 -210 -211 0
210 -202 -211 0
211 -202 -210 0
210 202 211 0
-211 0
202 -212 -213 0
212 -202 -213 0
213 -202 -212 0
212 202 213 0
-213 0
214 215 0
216 215 0
217 215 0
218 215 0
219 215 0
220 215 0
-221 0
-222 215 -223 0
222 -215 -223 0
223 -215 -222 0
222 215 223 0
-223 0
216 224 0
217 224 0
218 224 0
219 224 0
220 224 0
-225 0
224 -226 -227 0
226 -224 -227 0
227 -224 -226 0
226 224 227 0
-227 0
224 -228 -229 0
228 -224 -229 0
229 -224 -228 0
228 224 229 0
-229 0
224 -230 -231 0
230 -224 -231 0
231 -224 -230 0
230 224 231 0
-231 0
224 -232 -233 0
232 -224 -233 0
233 -224 -232 0
232 224 233 0
-233 0
224 -234 -235 0
234 -224 -235 0
235 -224 -234 0
234 224 235 0
-235 0
236 237 0
238 237 0
239 237 0
240 237 0
241 237 0
242 237 0
243 237 0
244 237 0
245 237 0
246 237 0
247 237 0
248 237 0
-249 0
-250 237 -251 0
250 -237 -251 0
251 -237 -250 0
250 237 251 0
-251 0
238 252 0
239 252 0
240 252 0
241 252 0
242 252 0
243 252 0
244 252 0
245 252 0
246 252 0
247 252 0
248 252 0
-253 0
252 -254 -255 0
254 -252 -255 0
255 -252 -254 0
254 252 255 0
-255 0
239 256 0
240 256 0
241 256 0
242 256 0
243 256 0
244 256 0
245 256 0
246 256 0
247 256 0
248 256 0
-257 0
256 -258 -259 0
258 -256 -259 0
259 -256 -258 0
258 256 259 0
-259 0
240 260 0
241 260 0
242 260 0
243 260 0
244 260 0
245 260 0
246 260 0
247 260 0
248 260 0
-261 0
260 -262 -263 0
262 -260 -263 0
263 -260 -262 0
262 260 263 0
-263 0
241 264 0
242 264 0
243 264 0
244 264 0
245 264 0
246 264 0
247 264 0
248 264 0
-265 0
264 -266 -267 0
266 -264 -267 0
267 -264 -266 0
266 264 267 0
-267 0
242 268 0
243 268 0
244 268 0
245 268 0
246 268 0
247 268 0
248 268 0
-269 0
268 -270 -271 0
270 -268 -271 0
271 -268 -270 0
270 268 271 0
-271 0
243 272 0
244 272 0
245 272 0
246 272 0
247 272 0
248 272 0
-273 0
272 -274 -275 0
274 -272 -275 0
275 -272 -274 0
274 272 275 0
-275 0
272 -276 -277 0
276 -272 -277 0
277 -272 -276 0
276 272 277 0
-277 0
272 -278 -279 0
278 -272 -279 0
279 -272 -278 0
278 272 279 0
-279 0
272 -280 -281 0
280 -272 -281 0
281 -272 -280 0
280 272 281 0
-281 0
272 -282 -283 0
282 -272 -283 0
283 -272 -282 0
282 272 283 0
-283 0
272 -284 -285 0
284 -272 -285 0
285 -272 -284 0
284 272 285 0
-285 0
286 287 0
288 287 0
289 287 0
290 287 0
291 287 0
292 287 0
293 287 0
-294 0
-295 287 -296 0
295 -287 -296 0
296 -287 -295 0
295 287 296 0
-296 0
288 297 0
289 297 0
290 297 0
291 297 0
292 297 0
293 297 0
-298 0
297 -299 -300 0
299 -297 -300 0
300 -297 -299 0
299 297 300 0
-300 0
289 301 0
290 301 0
291 301 0
292 301 0
293 301 0
-302 0
301 -303 -304 0
303 -301 -304 0
304 -301 -303 0
303 301 304 0
-304 0
290 305 0
291 305 0
292 305 0
293 305 0
-306 0
305 -307 -308 0
307 -305 -308 0
308 -305 -307 0
307 305 308 0
-308 0
291 309 0
292 309 0
293 309 0
-291 -292 -293 -309 0
309 -310 -311 0
310 -309 -311 0
311 -309 -310 0
310 309 311 0
-311 0
292 312 0
293 312 0
-292 -293 -312 0
312 -313 -314 0
313 -312 -314 0
314 -312 -313 0
313 312 314 0
-314 0
312 -315 -316 0
315 -312 -316 0
316 -312 -315 0
315 312 316 0
-316 0
317 318 0
319 318 0
320 318 0
321 318 0
322 318 0
323 318 0
324 318 0
325 318 0
326 318 0
327 318 0
328 318 0
329 318 0
-330 0
-331 318 -332 0
331 -318 -332 0
332 -318 -331 0
331 318 332 0
-332 0
319 333 0
320 333 0
321 333 0
322 333 0
323 333 0
324 333 0
325 333 0
326 333 0
327 333 0
328 333 0
329 333 0
-334 0
333 -335 -336 0
335 -333 -336 0
336 -333 -335 0
335 333 336 0
-336 0
320 337 0
321 337 0
322 337 0
323 337 0
324 337 0
325 337 0
326 337 0
327 337 0
328 337 0
329 337 0
-338 0
337 -339 -340 0
339 -337 -340 0
340 -337 -339 0
339 337 340 0
-340 0
321 341 0
322 341 0
323 341 0
324 341 0
325 341 0
326 341 0
327 341 0
328 341 0
329 341 0
-342 0
341 -343 -344 0
343 -341 -344 0
344 -341 -343 0
343 341 344 0
-344 0
322 345 0
323 345 0
324 345 0
325 345 0
326 345 0
327 345 0
328 345 0
329 345 0
-346 0
345 -347 -348 0
347 -345 -348 0
348 -345 -347 0
347 345 348 0
-348 0
323 349 0
324 349 0
325 349 0
326 349 0
327 349 0
328 349 0
329 349 0
-350 0
349 -351 -352 0
351 -349 -352 0
352 -349 -351 0
351 349 352 0
-352 0
324 353 0
325 353 0
326 353 0
327 353 0
328 353 0
329 353 0
-354 0
353 -355 -356 0
355 -353 -356 0
356 -353 -355 0
355 353 356 0
-356 0
353 -357 -358 0
357 -353 -358 0
358 -353 -357 0
357 353 358 0
-358 0
353 -359 -360 0
359 -353 -360 0
360 -353 -359 0
359 353 360 0
-360 0
353 -361 -362 0
361 -353 -362 0
362 -353 -361 0
361 353 362 0
-362 0
353 -363 -364 0
363 -353 -364 0
364 -353 -363 0
363 353 364 0
-364 0
353 -365 -366 0
365 -353 -366 0
366 -353 -365 0
365 353 366 0
-366 0
367 368 0
369 368 0
370 368 0
371 368 0
372 368 0
373 368 0
374 368 0
375 368 0
-376 0
-377 368 -378 0
377 -368 -378 0
378 -368 -377 0
377 368 378 0
-378 0
369 379 0
370 379 0
371 379 0
372 379 0
373 379 0
374 379 0
375 379 0
-380 0
379 -381 -382 0
381 -379 -382 0
382 -379 -381 0
381 379 382 0
-382 0
370 383 0
371 383 0
372 383 0
373 383 0
374 383 0
375 383 0
-384 0
383 -385 -386 0
385 -383 -386 0
386 -383 -385 0
385 383 386 0
-386 0
371 387 0
372 387 0
373 387 0
374 387 0
375 387 0
-388 0
387 -389 -390 0
389 -387 -390 0
390 -387 -389 0
389 387 390 0
-390 0
372 391 0
373 391 0
374 391 0
375 391 0
-392 0
391 -393 -394 0
393 -391 -394 0
394 -391 -393 0
393 391 394 0
-394 0
391 -395 -396 0
395 -391 -396 0
396 -391 -395 0
395 391 396 0
-396 0
391 -397 -398 0
397 -391 -398 0
398 -391 -397 0
397 391 398 0
-398 0
391 -399 -400 0
399 -391 -400 0
400 -391 -399 0
399 391 400 0
-400 0
401 402 0
403 402 0
404 402 0
405 402 0
406 402 0
407 402 0
408 402 0
409 402 0
410 402 0
-411 0
-412 402 -413 0
412 -402 -413 0
413 -402 -412 0
412 402 413 0
-413 0
403 414 0
404 414 0
405 414 0
406 414 0
407 414 0
408 414 0
409 414 0
410 414 0
-415 0
414 -416 -417 0
416 -414 -417 0
417 -414 -416 0
416 414 417 0
-417 0
404 418 0
405 418 0
406 418 0
407 418 0
408 418 0
409 418 0
410 418 0
-419 0
418 -420 -421 0
420 -418 -421 0
421 -418 -420 0
420 418 421 0
-421 0
405 422 0
406 422 0
407 422 0
408 422 0
409 422 0
410 422 0
-423 0
422 -424 -425 0
424 -422 -425 0
425 -422 -424 0
424 422 425 0
-425 0
406 426 0
407 426 0
408 426 0
409 426 0
410 426 0
-427 0
426 -428 -429 0
428 -426 -429 0
429 -426 -428 0
428 426 429 0
-429 0
426 -430 -431 0
430 -426 -431 0
431 -426 -430 0
430 426 431 0
-431 0
426 -432 -433 0
432 -426 -433 0
433 -426 -432 0
432 426 433 0
-433 0
426 -434 -435 0
434 -426 -435 0
435 -426 -434 0
434 426 435 0
-435 0
426 -436 -437 0
436 -426 -437 0
437 -426 -436 0
436 426 437 0
-437 0
438 439 0
440 439 0
441 439 0
442 439 0
443 439 0
444 439 0
445 439 0
446 439 0
447 439 0
448 439 0
449 439 0
-450 0
-451 439 -452 0
451 -439 -452 0
452 -439 -451 0
451 439 452 0
-452 0
440 453 0
441 453 0
442 453 0
443 453 0
444 453 0
445 453 0
446 453 0
447 453 0
448 453 0
449 453 0
-454 0
453 -455 -456 0
455 -453 -456 0
456 -453 -455 0
455 453 456 0
-456 0
441 457 0
442 457 0
443 457 0
444 457 0
445 457 0
446 457 0
447 457 0
448 457 0
449 457 0
-458 0
457 -459 -460 0
459 -457 -460 0
460 -457 -459 0
459 457 460 0
-460 0
442 461 0
443 461 0
444 461 0
445 461 0
446 461 0
447 461 0
448 461 0
449 461 0
-462 0
461 -463 -464 0
463 -461 -464 0
464 -461 -463 0
463 461 464 0
-464 0
443 465 0
444 465 0
445 465 0
446 465 0
447 465 0
448 465 0
449 465 0
-466 0
465 -467 -468 0
467 -465 -468 0
468 -465 -467 0
467 465 468 0
-468 0
444 469 0
445 469 0
446 469 0
447 469 0
448 469 0
449 469 0
-470 0
469 -471 -472 0
471 -469 -472 0
472 -469 -471 0
471 469 472 0
-472 0
469 -473 -474 0
473 -469 -474 0
474 -469 -473 0
473 469 474 0
-474 0
469 -475 -476 0
475 -469 -476 0
476 -469 -475 0
475 469 476 0
-476 0
469 -477 -478 0
477 -469 -478 0
478 -469 -477 0
477 469 478 0
-478 0
469 -479 -480 0
479 -469 -480 0
480 -469 -479 0
479 469 480 0
-480 0
469 -481 -482 0
481 -469 -482 0
482 -469 -481 0
481 469 482 0
-482 0
483 484 0
485 484 0
486 484 0
487 484 0
488 484 0
489 484 0
490 484 0
491 484 0
492 484 0
-493 0
-494 484 -495 0
494 -484 -495 0
495 -484 -494 0
494 484 495 0
-495 0
485 496 0
486 496 0
487 496 0
488 496 0
489 496 0
490 496 0
491 496 0
492 496 0
-497 0
496 -498 -499 0
498 -496 -499 0
499 -496 -498 0
498 496 499 0
-499 0
486 500 0
487 500 0
488 500 0
489 500 0
490 500 0
491 500 0
492 500 0
-501 0
500 -502 -503 0
502 -500 -503 0
503 -500 -502 0
502 500 503 0
-503 0
487 504 0
488 504 0
489 504 0
490 504 0
491 504 0
492 504 0
-505 0
504 -506 -507 0
506 -504 -507 0
507 -504 -506 0
506 504 507 0
-507 0
488 508 0
489 508 0
490 508 0
491 508 0
492 508 0
-509 0
508 -510 -511 0
510 -508 -511 0
511 -508 -510 0
510 508 511 0
-511 0
508 -512 -513 0
512 -508 -513 0
513 -508 -512 0
512 508 513 0
-513 0
508 -514 -515 0
514 -508 -515 0
515 -508 -514 0
514 508 515 0
-515 0
508 -516 -517 0
516 -508 -517 0
517 -508 -516 0
516 508 517 0
-517 0
508 -518 -519 0
518 -508 -519 0
519 -508 -518 0
518 508 519 0
-519 0
520 521 0
522 521 0
523 521 0
524 521 0
525 521 0
526 521 0
527 521 0
528 521 0
529 521 0
530 521 0
531 521 0
532 521 0
-533 0
-534 521 -535 0
534 -521 -535 0
535 -521 -534 0
534 521 535 0
-535 0
522 536 0
523 536 0
524 536 0
525 536 0
526 536 0
527 536 0
528 536 0
529 536 0
530 536 0
531 536 0
532 536 0
-537 0
536 -538 -539 0
538 -536 -539 0
539 -536 -538 0
538 536 539 0
-539 0
523 540 0
524 540 0
525 540 0
526 540 0
527 540 0
528 540 0
529 540 0
530 540 0
531 540 0
532 540 0
-541 0
540 -542 -543 0
542 -540 -543 0
543 -540 -542 0
542 540 543 0
-543 0
524 544 0
525 544 0
526 544 0
527 544 0
528 544 0
529 544 0
530 544 0
531 544 0
532 544 0
-545 0
544 -546 -547 0
546 -544 -547 0
547 -544 -546 0
546 544 547 0
-547 0
525 548 0
526 548 0
527 548 0
528 548 0
529 548 0
530 548 0
531 548 0
532 548 0
-549 0
548 -550 -551 0
550 -548 -551 0
551 -548 -550 0
550 548 551 0
-551 0
526 552 0
527 552 0
528 552 0
529 552 0
530 552 0
531 552 0
532 552 0
-553 0
552 -554 -555 0
554 -552 -555 0
555 -552 -554 0
554 552 555 0
-555 0
527 556 0
528 556 0
529 556 0
530 556 0
531 556 0
532 556 0
-557 0
556 -558 -559 0
558 -556 -559 0
559 -556 -558 0
558 556 559 0
-559 0
556 -560 -561 0
560 -556 -561 0
561 -556 -560 0
560 556 561 0
-561 0
556 -562 -563 0
562 -556 -563 0
563 -556 -562 0
562 556 563 0
-563 0
556 -564 -565 0
564 -556 -565 0
565 -556 -564 0
564 556 565 0
-565 0
556 -566 -567 0
566 -556 -567 0
567 -556 -566 0
566 556 567 0
-567 0
556 -568 -569 0
568 -556 -569 0
569 -556 -568 0
568 556 569 0
-569 0
570 571 0
572 571 0
573 571 0
574 571 0
575 571 0
576 571 0
577 571 0
578 571 0
579 571 0
580 571 0
-581 0
-582 571 -583 0
582 -571 -583 0
583 -571 -582 0
582 571 583 0
-583 0
572 584 0
573 584 0
574 584 0
575 584 0
576 584 0
577 584 0
578 584 0
579 584 0
580 584 0
-585 0
584 -586 -587 0
586 -584 -587 0
587 -584 -586 0
586 584 587 0
-587 0
573 588 0
574 588 0
575 588 0
576 588 0
577 588 0
578 588 0
579 588 0
580 588 0
-589 0
588 -590 -591 0
590 -588 -591 0
591 -588 -590 0
590 588 591 0
-591 0
574 592 0
575 592 0
576 592 0
577 592 0
578 592 0
579 592 0
580 592 0
-593 0
592 -594 -595 0
594 -592 -595 0
595 -592 -594 0
594 592 595 0
-595 0
575 596 0
576 596 0
577 596 0
578 596 0
579 596 0
580 596 0
-597 0
596 -598 -599 0
598 -596 -599 0
599 -596 -598 0
598 596 599 0
-599 0
576 600 0
577 600 0
578 600 0
579 600 0
580 600 0
-601 0
600 -602 -603 0
602 -600 -603 0
603 -600 -602 0
602 600 603 0
-603 0
577 604 0
578 604 0
579 604 0
580 604 0
-605 0
604 -606 -607 0
606 -604 -607 0
607 -604 -606 0
606 604 607 0
-607 0
604 -608 -609 0
608 -604 -609 0
609 -604 -608 0
608 604 609 0
-609 0
604 -610 -611 0
610 -604 -611 0
611 -604 -610 0
610 604 611 0
-611 0
604 -612 -613 0
612 -604 -613 0
613 -604 -612 0
612 604 613 0
-613 0
614 615 0
616 615 0
617 615 0
618 615 0
619 615 0
620 615 0
621 615 0
622 615 0
623 615 0
-624 0
-625 615 -626 0
625 -615 -626 0
626 -615 -625 0
625 615 626 0
-626 0
616 627 0
617 627 0
618 627 0
619 627 0
620 627 0
621 627 0
622 627 0
623 627 0
-628 0
627 -629 -630 0
629 -627 -630 0
630 -627 -629 0
629 627 630 0
-630 0
617 631 0
618 631 0
619 631 0
620 631 0
621 631 0
622 631 0
623 631 0
-632 0
631 -633 -634 0
633 -631 -634 0
634 -631 -633 0
633 631 634 0
-634 0
618 635 0
619 635 0
620 635 0
621 635 0
622 635 0
623 635 0
-636 0
635 -637 -638 0
637 -635 -638 0
638 -635 -637 0
637 635 638 0
-638 0
619 639 0
620 639 0
621 639 0
622 639 0
623 639 0
-640 0
639 -641 -642 0
641 -639 -642 0
642 -639 -641 0
641 639 642 0
-642 0
620 643 0
621 643 0
622 643 0
623 643 0
-644 0
643 -645 -646 0
645 -643 -646 0
646 -643 -645 0
645 643 646 0
-646 0
643 -647 -648 0
647 -643 -648 0
648 -643 -647 0
647 643 648 0
-648 0
643 -649 -650 0
649 -643 -650 0
650 -643 -649 0
649 643 650 0
-650 0
643 -651 -652 0
651 -643 -652 0
652 -643 -651 0
651 643 652 0
-652 0
653 654 0
655 654 0
656 654 0
657 654 0
658 654 0
-659 0
-660 654 -661 0
660 -654 -661 0
661 -654 -660 0
660 654 661 0
-661 0
655 662 0
656 662 0
657 662 0
658 662 0
-663 0
662 -664 -665 0
664 -662 -665 0
665 -662 -664 0
664 662 665 0
-665 0
656 666 0
657 666 0
658 666 0
-656 -657 -658 -666 0
666 -667 -668 0
667 -666 -668 0
668 -666 -667 0
667 666 668 0
-668 0
657 669 0
658 669 0
-657 -658 -669 0
669 -670 -671 0
670 -669 -671 0
671 -669 -670 0
670 669 671 0
-671 0
672 -658 0
658 -672 0
673 674 0
675 674 0
676 674 0
677 674 0
678 674 0
679 674 0
680 674 0
681 674 0
682 674 0
683 674 0
684 674 0
-685 0
-686 674 -687 0
686 -674 -687 0
687 -674 -686 0
686 674 687 0
-687 0
675 688 0
676 688 0
677 688 0
678 688 0
679 688 0
680 688 0
681 688 0
682 688 0
683 688 0
684 688 0
-689 0
688 -690 -691 0
690 -688 -691 0
691 -688 -690 0
690 688 691 0
-691 0
676 692 0
677 692 0
678 692 0
679 692 0
680 692 0
681 692 0
682 692 0
683 692 0
684 692 0
-693 0
692 -694 -695 0
694 -692 -695 0
695 -692 -694 0
694 692 695 0
-695 0
677 696 0
678 696 0
679 696 0
680 696 0
681 696 0
682 696 0
683 696 0
684 696 0
-697 0
696 -698 -699 0
698 -696 -699 0
699 -696 -698 0
698 696 699 0
-699 0
678 700 0
679 700 0
680 700 0
681 700 0
682 700 0
683 700 0
684 700 0
-701 0
700 -702 -703 0
702 -700 -703 0
703 -700 -702 0
702 700 703 0
-703 0
679 704 0
680 704 0
681 704 0
682 704 0
683 704 0
684 704 0
-705 0
704 -706 -707 0
706 -704 -707 0
707 -704 -706 0
706 704 707 0
-707 0
704 -708 -709 0
708 -704 -709 0
709 -704 -708 0
708 704 709 0
-709 0
704 -710 -711 0
710 -704 -711 0
711 -704 -710 0
710 704 711 0
-711 0
704 -712 -713 0
712 -704 -713 0
713 -704 -712 0
712 704 713 0
-713 0
704 -714 -715 0
714 -704 -715 0
715 -704 -714 0
714 704 715 0
-715 0
704 -716 -717 0
716 -704 -717 0
717 -704 -716 0
716 704 717 0
-717 0
718 719 0
720 719 0
721 719 0
722 719 0
723 719 0
724 719 0
725 719 0
726 719 0
-727 0
-728 719 -729 0
728 -719 -729 0
729 -719 -728 0
728 719 729 0
-729 0
720 730 0
721 730 0
722 730 0
723 730 0
724 730 0
725 730 0
726 730 0
-731 0
730 -732 -733 0
732 -730 -733 0
733 -730 -732 0
732 730 733 0
-733 0
721 734 0
722 734 0
723 734 0
724 734 0
725 734 0
726 734 0
-735 0
734 -736 -737 0
736 -734 -737 0
737 -734 -736 0
736 734 737 0
-737 0
722 738 0
723 738 0
724 738 0
725 738 0
726 738 0
-739 0
738 -740 -741 0
740 -738 -741 0
741 -738 -740 0
740 738 741 0
-741 0
738 -742 -743 0
742 -738 -743 0
743 -738 -742 0
742 738 743 0
-743 0
738 -744 -745 0
744 -738 -745 0
745 -738 -744 0
744 738 745 0
-745 0
738 -746 -747 0
746 -738 -747 0
747 -738 -746 0
746 738 747 0
-747 0
738 -748 -749 0
748 -738 -749 0
749 -738 -748 0
748 738 749 0
-749 0
750 751 0
752 751 0
753 751 0
754 751 0
755 751 0
756 751 0
757 751 0
-758 0
-759 751 -760 0
759 -751 -760 0
760 -751 -759 0
759 751 760 0
-760 0
752 761 0
753 761 0
754 761 0
755 761 0
756 761 0
757 761 0
-762 0
761 -763 -764 0
763 -761 -764 0
764 -761 -763 0
763 761 764 0
-764 0
761 -765 -766 0
765 -761 -766 0
766 -761 -765 0
765 761 766 0
-766 0
761 -767 -768 0
767 -761 -768 0
768 -761 -767 0
767 761 768 0
-768 0
761 -769 -770 0
769 -761 -770 0
770 -761 -769 0
769 761 770 0
-770 0
761 -771 -772 0
771 -761 -772 0
772 -761 -771 0
771 761 772 0
-772 0
761 -773 -774 0
773 -761 -774 0
774 -761 -773 0
773 761 774 0
-774 0
775 776 0
777 776 0
778 776 0
779 776 0
780 776 0
781 776 0
782 776 0
783 776 0
784 776 0
785 776 0
-786 0
-787 776 -788 0
787 -776 -788 0
788 -776 -787 0
787 776 788 0
-788 0
777 789 0
778 789 0
779 789 0
780 789 0
781 789 0
782 789 0
783 789 0
784 789 0
785 789 0
-790 0
789 -791 -792 0
791 -789 -792 0
792 -789 -791 0
791 789 792 0
-792 0
778 793 0
779 793 0
780 793 0
781 793 0
782 793 0
783 793 0
784 793 0
785 793 0
-794 0
793 -795 -796 0
795 -793 -796 0
796 -793 -795 0
795 793 796 0
-796 0
779 797 0
780 797 0
781 797 0
782 797 0
783 797 0
784 797 0
785 797 0
-798 0
797 -799 -800 0
799 -797 -800 0
800 -797 -799 0
799 797 800 0
-800 0
780 801 0
781 801 0
782 801 0
783 801 0
784 801 0
785 801 0
-802 0
801 -803 -804 0
803 -801 -804 0
804 -801 -803 0
803 801 804 0
-804 0
781 805 0
782 805 0
783 805 0
784 805 0
785 805 0
-806 0
805 -807 -808 0
807 -805 -808 0
808 -805 -807 0
807 805 808 0
-808 0
782 809 0
783 809 0
784 809 0
785 809 0
-810 0
809 -811 -812 0
811 -809 -812 0
812 -809 -811 0
811 809 812 0
-812 0
809 -813 -814 0
813 -809 -814 0
814 -809 -813 0
813 809 814 0
-814 0
809 -815 -816 0
815 -809 -816 0
816 -809 -815 0
815 809 816 0
-816 0
809 -817 -818 0
817 -809 -818 0
818 -809 -817 0
817 809 818 0
-818 0
819 820 0
821 820 0
822 820 0
823 820 0
824 820 0
825 820 0
826 820 0
827 820 0
828 820 0
829 820 0
-830 0
-831 820 -832 0
831 -820 -832 0
832 -820 -831 0
831 820 832 0
-832 0
821 833 0
822 833 0
823 833 0
824 833 0
825 833 0
826 833 0
827 833 0
828 833 0
829 833 0
-834 0
833 -835 -836 0
835 -833 -836 0
836 -833 -835 0
835 833 836 0
-836 0
822 837 0
823 837 0
824 837 0
825 837 0
826 837 0
827 837 0
828 837 0
829 837 0
-838 0
837 -839 -840 0
839 -837 -840 0
840 -837 -839 0
839 837 840 0
-840 0
823 841 0
824 841 0
825 841 0
826 841 0
827 841 0
828 841 0
829 841 0
-842 0
841 -843 -844 0
843 -841 -844 0
844 -841 -843 0
843 841 844 0
-844 0
824 845 0
825 845 0
826 845 0
827 845 0
828 845 0
829 845 0
-846 0
845 -847 -848 0
847 -845 -848 0
848 -845 -847 0
847 845 848 0
-848 0
825 849 0
826 849 0
827 849 0
828 849 0
829 849 0
-850 0
849 -851 -852 0
851 -849 -852 0
852 -849 -851 0
851 849 852 0
-852 0
826 853 0
827 853 0
828 853 0
829 853 0
-854 0
853 -855 -856 0
855 -853 -856 0
856 -853 -855 0
855 853 856 0
-856 0
853 -857 -858 0
857 -853 -858 0
858 -853 -857 0
857 853 858 0
-858 0
853 -859 -860 0
859 -853 -860 0
860 -853 -859 0
859 853 860 0
-860 0
853 -861 -862 0
861 -853 -862 0
862 -853 -861 0
861 853 862 0
-862 0
863 864 0
865 864 0
866 864 0
867 864 0
868 864 0
869 864 0
870 864 0
871 864 0
-872 0
-873 864 -874 0
873 -864 -874 0
874 -864 -873 0
873 864 874 0
-874 0
865 875 0
866 875 0
867 875 0
868 875 0
869 875 0
870 875 0
871 875 0
-876 0
875 -877 -878 0
877 -875 -878 0
878 -875 -877 0
877 875 878 0
-878 0
866 879 0
867 879 0
868 879 0
869 879 0
870 879 0
871 879 0
-880 0
879 -881 -882 0
881 -879 -882 0
882 -879 -881 0
881 879 882 0
-882 0
867 883 0
868 883 0
869 883 0
870 883 0
871 883 0
-884 0
883 -885 -886 0
885 -883 -886 0
886 -883 -885 0
885 883 886 0
-886 0
868 887 0
869 887 0
870 887 0
871 887 0
-888 0
887 -889 -890 0
889 -887 -890 0
890 -887 -889 0
889 887 890 0
-890 0
887 -891 -892 0
891 -887 -892 0
892 -887 -891 0
891 887 892 0
-892 0
887 -893 -894 0
893 -887 -894 0
894 -887 -893 0
893 887 894 0
-894 0
887 -895 -896 0
895 -887 -896 0
896 -887 -895 0
895 887 896 0
-896 0
897 898 0
899 898 0
900 898 0
901 898 0
902 898 0
903 898 0
904 898 0
905 898 0
906 898 0
-907 0
-908 898 -909 0
908 -898 -909 0
909 -898 -908 0
908 898 909 0
-909 0
899 910 0
900 910 0
901 910 0
902 910 0
903 910 0
904 910 0
905 910 0
906 910 0
-911 0
910 -912 -913 0
912 -910 -913 0
913 -910 -912 0
912 910 913 0
-913 0
900 914 0
901 914 0
902 914 0
903 914 0
904 914 0
905 914 0
906 914 0
-915 0
914 -916 -917 0
916 -914 -917 0
917 -914 -916 0
916 914 917 0
-917 0
901 918 0
902 918 0
903 918 0
904 918 0
905 918 0
906 918 0
-919 0
918 -920 -921 0
920 -918 -921 0
921 -918 -920 0
920 918 921 0
-921 0
902 922 0
903 922 0
904 922 0
905 922 0
906 922 0
-923 0
922 -924 -925 0
924 -922 -925 0
925 -922 -924 0
924 922 925 0
-925 0
922 -926 -927 0
926 -922 -927 0
927 -922 -926 0
926 922 927 0
-927 0
922 -928 -929 0
928 -922 -929 0
929 -922 -928 0
928 922 929 0
-929 0
922 -930 -931 0
930 -922 -931 0
931 -922 -930 0
930 922 931 0
-931 0
922 -932 -933 0
932 -922 -933 0
933 -922 -932 0
932 922 933 0
-933 0
934 935 0
936 935 0
937 935 0
938 935 0
-939 0
-940 935 -941 0
940 -935 -941 0
941 -935 -940 0
940 935 941 0
-941 0
935 -942 -943 0
942 -935 -943 0
943 -935 -942 0
942 935 943 0
-943 0
935 -944 -945 0
944 -935 -945 0
945 -935 -944 0
944 935 945 0
-945 0
935 -946 -947 0
946 -935 -947 0
947 -935 -946 0
946 935 947 0
-947 0
948 949 0
950 949 0
951 949 0
952 949 0
953 949 0
-954 0
-955 949 -956 0
955 -949 -956 0
956 -949 -955 0
955 949 956 0
-956 0
949 -957 -958 0
957 -949 -958 0
958 -949 -957 0
957 949 958 0
-958 0
949 -959 -960 0
959 -949 -960 0
960 -949 -959 0
959 949 960 0
-960 0
949 -961 -962 0
961 -949 -962 0
962 -949 -961 0
961 949 962 0
-962 0
949 -963 -964 0
963 -949 -964 0
964 -949 -963 0
963 949 964 0
-964 0
1 0
3 0
5 0
7 0
9 0
11 0
13 0
15 0
17 0
19 0
21 0
23 0
25 0
27 0
29 0
31 0
33 0
35 0
37 0
39 0
41 0
43 0
45 0
47 0
49 0
-62 0
-100 0
-145 0
-188 0
-222 0
-250 0
-295 0
-331 0
-377 0
-412 0
-451 0
-494 0
-534 0
-582 0
-625 0
-660 0
-686 0
-728 0
-759 0
-787 0
-831 0
-873 0
-908 0
-940 0
-955 0
2 -4 0
4 -2 0
2 -6 0
6 -2 0
2 -8 0
8 -2 0
2 -10 0
10 -2 0
2 -12 0
12 -2 0
2 -14 0
14 -2 0
2 -16 0
16 -2 0
2 -18 0
18 -2 0
2 -20 0
20 -2 0
2 -22 0
22 -2 0
2 -24 0
24 -2 0
2 -26 0
26 -2 0
2 -28 0
28 -2 0
2 -30 0
30 -2 0
2 -32 0
32 -2 0
2 -34 0
34 -2 0
2 -36 0
36 -2 0
2 -38 0
38 -2 0
2 -40 0
40 -2 0
2 -42 0
42 -2 0
2 -44 0
44 -2 0
2 -46 0
46 -2 0
2 -48 0
48 -2 0
2 -50 0
50 -2 0
4 -6 0
6 -4 0
4 -8 0
8 -4 0
4 -10 0
10 -4 0
4 -12 0
12 -4 0
4 -14 0
14 -4 0
4 -16 0
16 -4 0
4 -18 0
18 -4 0
4 -20 0
20 -4 0
4 -22 0
22 -4 0
4 -24 0
24 -4 0
4 -26 0
26 -4 0
4 -28 0
28 -4 0
4 -30 0
30 -4 0
4 -32 0
32 -4 0
4 -34 0
34 -4 0
4 -36 0
36 -4 0
4 -38 0
38 -4 0
4 -40 0
40 -4 0
4 -42 0
42 -4 0
4 -44 0
44 -4 0
4 -46 0
46 -4 0
4 -48 0
48 -4 0
4 -50 0
50 -4 0
6 -8 0
8 -6 0
6 -10 0
10 -6 0
6 -12 0
12 -6 0
6 -14 0
14 -6 0
6 -16 0
16 -6 0
6 -18 0
18 -6 0
6 -20 0
20 -6 0
6 -22 0
22 -6 0
6 -24 0
24 -6 0
6 -26 0
26 -6 0
6 -28 0
28 -6 0
6 -30 0
30 -6 0
6 -32 0
32 -6 0
6 -34 0
34 -6 0
6 -36 0
36 -6 0
6 -38 0
38 -6 0
6 -40 0
40 -6 0
6 -42 0
42 -6 0
6 -44 0
44 -6 0
6 -46 0
46 -6 0
6 -48 0
48 -6 0
6 -50 0
50 -6 0
8 -10 0
10 -8 0
8 -12 0
12 -8 0
8 -14 0
14 -8 0
8 -16 0
16 -8 0
8 -18 0
18 -8 0
8 -20 0
20 -8 0
8 -22 0
22 -8 0
8 -24 0
24 -8 0
8 -26 0
26 -8 0
8 -28 0
28 -8 0
8 -30 0
30 -8 0
8 -32 0
32 -8 0
8 -34 0
34 -8 0
8 -36 0
36 -8 0
8 -38 0
38 -8 0
8 -40 0
40 -8 0
8 -42 0
42 -8 0
8 -44 0
44 -8 0
8 -46 0
46 -8 0
8 -48 0
48 -8 0
8 -50 0
50 -8 0
10 -12 0
12 -10 0
10 -14 0
14 -10 0
10 -16 0
16 -10 0
10 -18 0
18 -10 0
10 -20 0
20 -10 0
10 -22 0
22 -10 0
10 -24 0
24 -10 0
10 -26 0
26 -10 0
10 -28 0
28 -10 0
10 -30 0
30 -10 0
10 -32 0
32 -10 0
10 -34 0
34 -10 0
10 -36 0
36 -10 0
10 -38 0
38 -10 0
10 -40 0
40 -10 0
10 -42 0
42 -10 0
10 -44 0
44 -10 0
10 -46 0
46 -10 0
10 -48 0
48 -10 0
10 -50 0
50 -10 0
12 -14 0
14 -12 0
12 -16 0
16 -12 0
12 -18 0
18 -12 0
12 -20 0
20 -12 0
12 -22 0
22 -12 0
12 -24 0
24 -12 0
12 -26 0
26 -12 0
12 -28 0
28 -12 0
12 -30 0
30 -12 0
12 -32 0
32 -12 0
12 -34 0
34 -12 0
12 -36 0
36 -12 0
12 -38 0
38 -12 0
12 -40 0
40 -12 0
12 -42 0
42 -12 0
12 -44 0
44 -12 0
12 -46 0
46 -12 0
12 -48 0
48 -12 0
12 -50 0
50 -12 0
14 -16 0
16 -14 0
14 -18 0
18 -14 0
14 -20 0
20 -14 0
14 -22 0
22 -14 0
14 -24 0
24 -14 0
14 -26 0
26 -14 0
14 -28 0
28 -14 0
14 -30 0
30 -14 0
14 -32 0
32 -14 0
14 -34 0
34 -14 0
14 -36 0
36 -14 0
14 -38 0
38 -14 0
14 -40 0
40 -14 0
14 -42 0
42 -14 0
14 -44 0
44 -14 0
14 -46 0
46 -14 0
14 -48 0
48 -14 0
14 -50 0
50 -14 0
16 -18 0
18 -16 0
16 -20 0
20 -16 0
16 -22 0
22 -16 0
16 -24 0
24 -16 0
16 -26 0
26 -16 0
16 -28 0
28 -16 0
16 -30 0
30 -16 0
16 -32 0
32 -16 0
16 -34 0
34 -16 0
16 -36 0
36 -16 0
16 -38 0
38 -16 0
16 -40 0
40 -16 0
16 -42 0
42 -16 0
16 -44 0
44 -16 0
16 -46 0
46 -16 0
16 -48 0
48 -16 0
16 -50 0
50 -16 0
18 -20 0
20 -18 0
18 -22 0
22 -18 0
18 -24 0
24 -18 0
18 -26 0
26 -18 0
18 -28 0
28 -18 0
18 -30 0
30 -18 0
18 -32 0
32 -18 0
18 -34 0
34 -18 0
18 -36 0
36 -18 0
18 -38 0
38 -18 0
18 -40 0
40 -18 0
18 -42 0
42 -18 0
18 -44 0
44 -18 0
18 -46 0
46 -18 0
18 -48 0
48 -18 0
18 -50 0
50 -18 0
20 -22 0
22 -20 0
20 -24 0
24 -20 0
20 -26 0
26 -20 0
20 -28 0
28 -20 0
20 -30 0
30 -20 0
20 -32 0
32 -20 0
20 -34 0
34 -20 0
20 -36 0
36 -20 0
20 -38 0
38 -20 0
20 -40 0
40 -20 0
20 -42 0
42 -20 0
20 -44 0
44 -20 0
20 -46 0
46 -20 0
20 -48 0
48 -20 0
20 -50 0
50 -20 0
22 -24 0
24 -22 0
22 -26 0
26 -22 0
22 -28 0
28 -22 0
22 -30 0
30 -22 0
22 -32 0
32 -22 0
22 -34 0
34 -22 0
22 -36 0
36 -22 0
22 -38 0
38 -22 0
22 -40 0
40 -22 0
22 -42 0
42 -22 0
22 -44 0
44 -22 0
22 -46 0
46 -22 0
22 -48 0
48 -22 0
22 -50 0
50 -22 0
24 -26 0
26 -24 0
24 -28 0
28 -24 0
24 -30 0
30 -24 0
24 -32 0
32 -24 0
24 -34 0
34 -24 0
24 -36 0
36 -24 0
24 -38 0
38 -24 0
24 -40 0
40 -24 0
24 -42 0
42 -24 0
24 -44 0
44 -24 0
24 -46 0
46 -24 0
24 -48 0
48 -24 0
24 -50 0
50 -24 0
26 -28 0
28 -26 0
26 -30 0
30 -26 0
26 -32 0
32 -26 0
26 -34 0
34 -26 0
26 -36 0
36 -26 0
26 -38 0
38 -26 0
26 -40 0
40 -26 0
26 -42 0
42 -26 0
26 -44 0
44 -26 0
26 -46 0
46 -26 0
26 -48 0
48 -26 0
26 -50 0
50 -26 0
28 -30 0
30 -28 0
28 -32 0
32 -28 0
28 -34 0
34 -28 0
28 -36 0
36 -28 0
28 -38 0
38 -28 0
28 -40 0
40 -28 0
28 -42 0
42 -28 0
28 -44 0
44 -28 0
28 -46 0
46 -28 0
28 -48 0
48 -28 0
28 -50 0
50 -28 0
30 -32 0
32 -30 0
30 -34 0
34 -30 0
30 -36 0
36 -30 0
30 -38 0
38 -30 0
30 -40 0
40 -30 0
30 -42 0
42 -30 0
30 -44 0
44 -30 0
30 -46 0
46 -30 0
30 -48 0
48 -30 0
30 -50 0
50 -30 0
32 -34 0
34 -32 0
32 -36 0
36 -32 0
32 -38 0
38 -32 0
32 -40 0
40 -32 0
32 -42 0
42 -32 0
32 -44 0
44 -32 0
32 -46 0
46 -32 0
32 -48 0
48 -32 0
32 -50 0
50 -32 0
34 -36 0
36 -34 0
34 -38 0
38 -34 0
34 -40 0
40 -34 0
34 -42 0
42 -34 0
34 -44 0
44 -34 0
34 -46 0
46 -34 0
34 -48 0
48 -34 0
34 -50 0
50 -34 0
36 -38 0
38 -36 0
36 -40 0
40 -36 0
36 -42 0
42 -36 0
36 -44 0
44 -36 0
36 -46 0
46 -36 0
36 -48 0
48 -36 0
36 -50 0
50 -36 0
38 -40 0
40 -38 0
38 -42 0
42 -38 0
38 -44 0
44 -38 0
38 -46 0
46 -38 0
38 -48 0
48 -38 0
38 -50 0
50 -38 0
40 -42 0
42 -40 0
40 -44 0
44 -40 0
40 -46 0
46 -40 0
40 -48 0
48 -40 0
40 -50 0
50 -40 0
42 -44 0
44 -42 0
42 -46 0
46 -42 0
42 -48 0
48 -42 0
42 -50 0
50 -42 0
44 -46 0
46 -44 0
44 -48 0
48 -44 0
44 -50 0
50 -44 0
46 -48 0
48 -46 0
46 -50 0
50 -46 0
48 -50 0
50 -48 0
54 -180 0
180 -54 0
55 -181 0
181 -55 0
56 -182 0
182 -56 0
57 -183 0
183 -57 0
58 -184 0
184 -58 0
59 -185 0
185 -59 0
60 -186 0
186 -60 0
54 -404 0
404 -54 0
55 -405 0
405 -55 0
56 -406 0
406 -56 0
57 -407 0
407 -57 0
58 -408 0
408 -58 0
59 -409 0
409 -59 0
60 -410 0
410 -60 0
56 -948 0
948 -56 0
57 -950 0
950 -57 0
58 -951 0
951 -58 0
59 -952 0
952 -59 0
60 -953 0
953 -60 0
95 -375 0
375 -95 0
96 -372 0
372 -96 0
97 -373 0
373 -97 0
98 -374 0
374 -98 0
95 -621 0
621 -95 0
96 -622 0
622 -96 0
97 -623 0
623 -97 0
98 -620 0
620 -98 0
95 -785 0
785 -95 0
96 -782 0
782 -96 0
97 -783 0
783 -97 0
98 -784 0
784 -98 0
95 -828 0
828 -95 0
96 -829 0
829 -96 0
97 -826 0
826 -97 0
98 -827 0
827 -98 0
138 -682 0
682 -138 0
139 -683 0
683 -139 0
140 -684 0
684 -140 0
141 -679 0
679 -141 0
142 -680 0
680 -142 0
143 -681 0
681 -143 0
177 -401 0
401 -177 0
179 -403 0
403 -179 0
180 -404 0
404 -180 0
181 -405 0
405 -181 0
182 -406 0
406 -182 0
183 -407 0
407 -183 0
184 -408 0
408 -184 0
185 -409 0
409 -185 0
186 -410 0
410 -186 0
182 -948 0
948 -182 0
183 -950 0
950 -183 0
184 -951 0
951 -184 0
185 -952 0
952 -185 0
186 -953 0
953 -186 0
324 -448 0
448 -324 0
325 -449 0
449 -325 0
326 -444 0
444 -326 0
327 -445 0
445 -327 0
328 -446 0
446 -328 0
329 -447 0
447 -329 0
324 -755 0
755 -324 0
325 -756 0
756 -325 0
326 -757 0
757 -326 0
327 -752 0
752 -327 0
328 -753 0
753 -328 0
329 -754 0
754 -329 0
372 -622 0
622 -372 0
373 -623 0
623 -373 0
374 -620 0
620 -374 0
375 -621 0
621 -375 0
371 -781 0
781 -371 0
372 -782 0
782 -372 0
373 -783 0
783 -373 0
374 -784 0
784 -374 0
375 -785 0
785 -375 0
372 -829 0
829 -372 0
373 -826 0
826 -373 0
374 -827 0
827 -374 0
375 -828 0
828 -375 0
406 -948 0
948 -406 0
407 -950 0
950 -407 0
408 -951 0
951 -408 0
409 -952 0
952 -409 0
410 -953 0
953 -410 0
444 -757 0
757 -444 0
445 -752 0
752 -445 0
446 -753 0
753 -446 0
447 -754 0
754 -447 0
448 -755 0
755 -448 0
449 -756 0
756 -449 0
577 -871 0
871 -577 0
578 -868 0
868 -578 0
579 -869 0
869 -579 0
580 -870 0
870 -580 0
577 -937 0
937 -577 0
578 -938 0
938 -578 0
579 -934 0
934 -579 0
580 -936 0
936 -580 0
620 -784 0
784 -620 0
621 -785 0
785 -621 0
622 -782 0
782 -622 0
623 -783 0
783 -623 0
620 -827 0
827 -620 0
621 -828 0
828 -621 0
622 -829 0
829 -622 0
623 -826 0
826 -623 0
782 -829 0
829 -782 0
783 -826 0
826 -783 0
784 -827 0
827 -784 0
785 -828 0
828 -785 0
868 -938 0
938 -868 0
869 -934 0
934 -869 0
870 -936 0
936 -870 0
871 -937 0
937 -871 0
